NAME:14_HardATSPLIB_14
TYPE: ATSP
DIMENSION: 14
EDGE_WEIGHT_TYPE: EXPLICIT
EDGE_WEIGHT_FORMAT: FULL_MATRIX
EDGE_WEIGHT_SECTION
0	36	32	32	41	0	50	46	44	40	36	36	36	36
64	0	32	0	105	32	14	10	8	4	0	0	0	0
68	4	0	0	73	0	18	14	12	8	4	4	4	4
68	36	32	0	105	32	18	18	20	20	20	24	28	32
27	27	27	27	0	27	9	9	11	11	11	15	19	23
100	36	32	32	73	0	50	46	44	40	36	36	36	36
50	18	18	18	91	18	0	0	2	2	2	6	10	14
54	18	22	18	95	22	4	0	2	2	2	6	10	14
56	16	24	16	97	24	6	2	0	0	0	4	8	12
60	16	28	16	101	28	10	6	4	0	0	4	8	12
64	16	32	16	105	32	14	10	8	4	0	4	8	12
64	12	32	12	105	32	14	10	8	4	0	0	4	8
64	8	32	8	105	32	14	10	8	4	0	0	0	4
64	4	32	4	105	32	14	10	8	4	0	0	0	0
